[VALIDATOR STDOUT]
Checking plan: /home/jfan5/Safety-gen/runs/benchmark/optic/blocksworld_20260215_223618/blocksworld/optic_results/bw_ops3_n13_seed13001.plan
Plan to validate:

Plan size: 72
1:
(unstack b13 b4)
 
2:
(putdown b13)
 
3:
(unstack b6 b2)
 
4:
(stack b6 b13)
 
5:
(unstack b4 b1)
 
6:
(putdown b4)
 
7:
(unstack b2 b9)
 
8:
(stack b2 b1)
 
9:
(unstack b9 b8)
 
10:
(stack b9 b4)
 
11:
(unstack b8 b3)
 
12:
(putdown b8)
 
13:
(unstack b3 b11)
 
14:
(stack b3 b8)
 
15:
(unstack b11 b5)
 
16:
(putdown b11)
 
17:
(unstack b5 b10)
 
18:
(putdown b5)
 
19:
(pickup b10)
 
20:
(stack b10 b3)
 
21:
(unstack b2 b1)
 
22:
(putdown b2)
 
23:
(unstack b1 b7)
 
24:
(stack b1 b10)
 
25:
(unstack b7 b12)
 
26:
(putdown b7)
 
27:
(pickup b5)
 
28:
(stack b5 b7)
 
29:
(pickup b2)
 
30:
(stack b2 b1)
 
31:
(unstack b9 b4)
 
32:
(putdown b9)
 
33:
(pickup b4)
 
34:
(stack b4 b5)
 
35:
(pickup b9)
 
36:
(stack b9 b4)
 
37:
(unstack b2 b1)
 
38:
(putdown b2)
 
39:
(unstack b1 b10)
 
40:
(putdown b1)
 
41:
(unstack b10 b3)
 
42:
(putdown b10)
 
43:
(pickup b1)
 
44:
(stack b1 b10)
 
45:
(pickup b2)
 
46:
(stack b2 b1)
 
47:
(unstack b3 b8)
 
48:
(putdown b3)
 
49:
(pickup b8)
 
50:
(stack b8 b11)
 
51:
(pickup b3)
 
52:
(stack b3 b8)
 
53:
(unstack b2 b1)
 
54:
(putdown b2)
 
55:
(unstack b1 b10)
 
56:
(putdown b1)
 
57:
(pickup b2)
 
58:
(stack b2 b1)
 
59:
(pickup b10)
 
60:
(stack b10 b3)
 
61:
(unstack b2 b1)
 
62:
(putdown b2)
 
63:
(pickup b1)
 
64:
(stack b1 b10)
 
65:
(pickup b2)
 
66:
(stack b2 b1)
 
67:
(unstack b6 b13)
 
68:
(putdown b6)
 
69:
(pickup b13)
 
70:
(stack b13 b2)
 
71:
(pickup b6)
 
72:
(stack b6 b13)
 

Plan Validation details
-----------------------

Checking next happening (time 1)
Deleting (on b13 b4)
Deleting (clear b13)
Deleting (arm-empty)
Adding (holding b13)
Adding (clear b4)

Checking next happening (time 2)
Deleting (holding b13)
Adding (clear b13)
Adding (arm-empty)
Adding (on-table b13)

Checking next happening (time 3)
Deleting (on b6 b2)
Deleting (clear b6)
Deleting (arm-empty)
Adding (holding b6)
Adding (clear b2)

Checking next happening (time 4)
Deleting (clear b13)
Deleting (holding b6)
Adding (arm-empty)
Adding (clear b6)
Adding (on b6 b13)

Checking next happening (time 5)
Deleting (on b4 b1)
Deleting (clear b4)
Deleting (arm-empty)
Adding (holding b4)
Adding (clear b1)

Checking next happening (time 6)
Deleting (holding b4)
Adding (clear b4)
Adding (arm-empty)
Adding (on-table b4)

Checking next happening (time 7)
Deleting (on b2 b9)
Deleting (clear b2)
Deleting (arm-empty)
Adding (holding b2)
Adding (clear b9)

Checking next happening (time 8)
Deleting (clear b1)
Deleting (holding b2)
Adding (arm-empty)
Adding (clear b2)
Adding (on b2 b1)

Checking next happening (time 9)
Deleting (on b9 b8)
Deleting (clear b9)
Deleting (arm-empty)
Adding (holding b9)
Adding (clear b8)

Checking next happening (time 10)
Deleting (clear b4)
Deleting (holding b9)
Adding (arm-empty)
Adding (clear b9)
Adding (on b9 b4)

Checking next happening (time 11)
Deleting (on b8 b3)
Deleting (clear b8)
Deleting (arm-empty)
Adding (holding b8)
Adding (clear b3)

Checking next happening (time 12)
Deleting (holding b8)
Adding (clear b8)
Adding (arm-empty)
Adding (on-table b8)

Checking next happening (time 13)
Deleting (on b3 b11)
Deleting (clear b3)
Deleting (arm-empty)
Adding (holding b3)
Adding (clear b11)

Checking next happening (time 14)
Deleting (clear b8)
Deleting (holding b3)
Adding (arm-empty)
Adding (clear b3)
Adding (on b3 b8)

Checking next happening (time 15)
Deleting (on b11 b5)
Deleting (clear b11)
Deleting (arm-empty)
Adding (holding b11)
Adding (clear b5)

Checking next happening (time 16)
Deleting (holding b11)
Adding (clear b11)
Adding (arm-empty)
Adding (on-table b11)

Checking next happening (time 17)
Deleting (on b5 b10)
Deleting (clear b5)
Deleting (arm-empty)
Adding (holding b5)
Adding (clear b10)

Checking next happening (time 18)
Deleting (holding b5)
Adding (clear b5)
Adding (arm-empty)
Adding (on-table b5)

Checking next happening (time 19)
Deleting (clear b10)
Deleting (on-table b10)
Deleting (arm-empty)
Adding (holding b10)

Checking next happening (time 20)
Deleting (clear b3)
Deleting (holding b10)
Adding (arm-empty)
Adding (clear b10)
Adding (on b10 b3)

Checking next happening (time 21)
Deleting (on b2 b1)
Deleting (clear b2)
Deleting (arm-empty)
Adding (holding b2)
Adding (clear b1)

Checking next happening (time 22)
Deleting (holding b2)
Adding (clear b2)
Adding (arm-empty)
Adding (on-table b2)

Checking next happening (time 23)
Deleting (on b1 b7)
Deleting (clear b1)
Deleting (arm-empty)
Adding (holding b1)
Adding (clear b7)

Checking next happening (time 24)
Deleting (clear b10)
Deleting (holding b1)
Adding (arm-empty)
Adding (clear b1)
Adding (on b1 b10)

Checking next happening (time 25)
Deleting (on b7 b12)
Deleting (clear b7)
Deleting (arm-empty)
Adding (holding b7)
Adding (clear b12)

Checking next happening (time 26)
Deleting (holding b7)
Adding (clear b7)
Adding (arm-empty)
Adding (on-table b7)

Checking next happening (time 27)
Deleting (clear b5)
Deleting (on-table b5)
Deleting (arm-empty)
Adding (holding b5)

Checking next happening (time 28)
Deleting (clear b7)
Deleting (holding b5)
Adding (arm-empty)
Adding (clear b5)
Adding (on b5 b7)

Checking next happening (time 29)
Deleting (clear b2)
Deleting (on-table b2)
Deleting (arm-empty)
Adding (holding b2)

Checking next happening (time 30)
Deleting (clear b1)
Deleting (holding b2)
Adding (arm-empty)
Adding (clear b2)
Adding (on b2 b1)

Checking next happening (time 31)
Deleting (on b9 b4)
Deleting (clear b9)
Deleting (arm-empty)
Adding (holding b9)
Adding (clear b4)

Checking next happening (time 32)
Deleting (holding b9)
Adding (clear b9)
Adding (arm-empty)
Adding (on-table b9)

Checking next happening (time 33)
Deleting (clear b4)
Deleting (on-table b4)
Deleting (arm-empty)
Adding (holding b4)

Checking next happening (time 34)
Deleting (clear b5)
Deleting (holding b4)
Adding (arm-empty)
Adding (clear b4)
Adding (on b4 b5)

Checking next happening (time 35)
Deleting (clear b9)
Deleting (on-table b9)
Deleting (arm-empty)
Adding (holding b9)

Checking next happening (time 36)
Deleting (clear b4)
Deleting (holding b9)
Adding (arm-empty)
Adding (clear b9)
Adding (on b9 b4)

Checking next happening (time 37)
Deleting (on b2 b1)
Deleting (clear b2)
Deleting (arm-empty)
Adding (holding b2)
Adding (clear b1)

Checking next happening (time 38)
Deleting (holding b2)
Adding (clear b2)
Adding (arm-empty)
Adding (on-table b2)

Checking next happening (time 39)
Deleting (on b1 b10)
Deleting (clear b1)
Deleting (arm-empty)
Adding (holding b1)
Adding (clear b10)

Checking next happening (time 40)
Deleting (holding b1)
Adding (clear b1)
Adding (arm-empty)
Adding (on-table b1)

Checking next happening (time 41)
Deleting (on b10 b3)
Deleting (clear b10)
Deleting (arm-empty)
Adding (holding b10)
Adding (clear b3)

Checking next happening (time 42)
Deleting (holding b10)
Adding (clear b10)
Adding (arm-empty)
Adding (on-table b10)

Checking next happening (time 43)
Deleting (clear b1)
Deleting (on-table b1)
Deleting (arm-empty)
Adding (holding b1)

Checking next happening (time 44)
Deleting (clear b10)
Deleting (holding b1)
Adding (arm-empty)
Adding (clear b1)
Adding (on b1 b10)

Checking next happening (time 45)
Deleting (clear b2)
Deleting (on-table b2)
Deleting (arm-empty)
Adding (holding b2)

Checking next happening (time 46)
Deleting (clear b1)
Deleting (holding b2)
Adding (arm-empty)
Adding (clear b2)
Adding (on b2 b1)

Checking next happening (time 47)
Deleting (on b3 b8)
Deleting (clear b3)
Deleting (arm-empty)
Adding (holding b3)
Adding (clear b8)

Checking next happening (time 48)
Deleting (holding b3)
Adding (clear b3)
Adding (arm-empty)
Adding (on-table b3)

Checking next happening (time 49)
Deleting (clear b8)
Deleting (on-table b8)
Deleting (arm-empty)
Adding (holding b8)

Checking next happening (time 50)
Deleting (clear b11)
Deleting (holding b8)
Adding (arm-empty)
Adding (clear b8)
Adding (on b8 b11)

Checking next happening (time 51)
Deleting (clear b3)
Deleting (on-table b3)
Deleting (arm-empty)
Adding (holding b3)

Checking next happening (time 52)
Deleting (clear b8)
Deleting (holding b3)
Adding (arm-empty)
Adding (clear b3)
Adding (on b3 b8)

Checking next happening (time 53)
Deleting (on b2 b1)
Deleting (clear b2)
Deleting (arm-empty)
Adding (holding b2)
Adding (clear b1)

Checking next happening (time 54)
Deleting (holding b2)
Adding (clear b2)
Adding (arm-empty)
Adding (on-table b2)

Checking next happening (time 55)
Deleting (on b1 b10)
Deleting (clear b1)
Deleting (arm-empty)
Adding (holding b1)
Adding (clear b10)

Checking next happening (time 56)
Deleting (holding b1)
Adding (clear b1)
Adding (arm-empty)
Adding (on-table b1)

Checking next happening (time 57)
Deleting (clear b2)
Deleting (on-table b2)
Deleting (arm-empty)
Adding (holding b2)

Checking next happening (time 58)
Deleting (clear b1)
Deleting (holding b2)
Adding (arm-empty)
Adding (clear b2)
Adding (on b2 b1)

Checking next happening (time 59)
Deleting (clear b10)
Deleting (on-table b10)
Deleting (arm-empty)
Adding (holding b10)

Checking next happening (time 60)
Deleting (clear b3)
Deleting (holding b10)
Adding (arm-empty)
Adding (clear b10)
Adding (on b10 b3)

Checking next happening (time 61)
Deleting (on b2 b1)
Deleting (clear b2)
Deleting (arm-empty)
Adding (holding b2)
Adding (clear b1)

Checking next happening (time 62)
Deleting (holding b2)
Adding (clear b2)
Adding (arm-empty)
Adding (on-table b2)

Checking next happening (time 63)
Deleting (clear b1)
Deleting (on-table b1)
Deleting (arm-empty)
Adding (holding b1)

Checking next happening (time 64)
Deleting (clear b10)
Deleting (holding b1)
Adding (arm-empty)
Adding (clear b1)
Adding (on b1 b10)

Checking next happening (time 65)
Deleting (clear b2)
Deleting (on-table b2)
Deleting (arm-empty)
Adding (holding b2)

Checking next happening (time 66)
Deleting (clear b1)
Deleting (holding b2)
Adding (arm-empty)
Adding (clear b2)
Adding (on b2 b1)

Checking next happening (time 67)
Deleting (on b6 b13)
Deleting (clear b6)
Deleting (arm-empty)
Adding (holding b6)
Adding (clear b13)

Checking next happening (time 68)
Deleting (holding b6)
Adding (clear b6)
Adding (arm-empty)
Adding (on-table b6)

Checking next happening (time 69)
Deleting (clear b13)
Deleting (on-table b13)
Deleting (arm-empty)
Adding (holding b13)

Checking next happening (time 70)
Deleting (clear b2)
Deleting (holding b13)
Adding (arm-empty)
Adding (clear b13)
Adding (on b13 b2)

Checking next happening (time 71)
Deleting (clear b6)
Deleting (on-table b6)
Deleting (arm-empty)
Adding (holding b6)

Checking next happening (time 72)
Deleting (clear b13)
Deleting (holding b6)
Adding (arm-empty)
Adding (clear b6)
Adding (on b6 b13)
Plan executed successfully - checking goal
Plan valid
Final value: 72 

Successful plans:
Value: 72
 /home/jfan5/Safety-gen/runs/benchmark/optic/blocksworld_20260215_223618/blocksworld/optic_results/bw_ops3_n13_seed13001.plan 72
